instances/knapsack/discrete/knapsack_150_11.lp
\ Model knapsack_150_11
\ LP format - for model browsing. Use MPS format to capture full model detail.
\ Signature: 0x1d3d114bfbe69093
Minimize
  - 10 x[0] - 58 x[1] - 28 x[2] - 56 x[3] - 33 x[4] - 73 x[5] - 49 x[6]
   - 99 x[7] - 86 x[8] - 66 x[9] - 87 x[10] - 63 x[11] - 91 x[12]
   - 94 x[13] - 39 x[14] - 52 x[15] - 42 x[16] - 2 x[17] - 70 x[18]
   - 73 x[19] - 57 x[20] - 43 x[21] - 16 x[22] - 20 x[23] - 9 x[24]
   - 38 x[25] - 48 x[26] - 59 x[27] - 54 x[28] - 100 x[29] - 21 x[30]
   - 36 x[31] - 100 x[32] - 75 x[33] - 23 x[34] - 21 x[35] - 17 x[36]
   - 87 x[37] - 30 x[38] - 47 x[39] - 68 x[40] - 41 x[41] - 81 x[42]
   - 19 x[43] - 18 x[44] - 51 x[45] - 52 x[46] - 60 x[47] - 88 x[48]
   - x[49] - 59 x[50] - 66 x[51] - 95 x[52] - 93 x[53] - 8 x[54] - 30 x[55]
   - 98 x[56] - 92 x[57] - 68 x[58] - 55 x[59] - 32 x[60] - 14 x[61]
   - 45 x[62] - 25 x[63] - 6 x[64] - 29 x[65] - 93 x[66] - 53 x[67]
   - 20 x[68] - 41 x[69] - 97 x[70] - 11 x[71] - 25 x[72] - 61 x[73]
   - 94 x[74] - 66 x[75] - 10 x[76] - 97 x[77] - 4 x[78] - 55 x[79]
   - 39 x[80] - 98 x[81] - 25 x[82] - 54 x[83] - 5 x[84] - 56 x[85]
   - 94 x[86] - 75 x[87] - 84 x[88] - 22 x[89] - 22 x[90] - 77 x[91]
   - 53 x[92] - 100 x[93] - 88 x[94] - 22 x[95] - 61 x[96] - 20 x[97]
   - 92 x[98] - 24 x[99] - 16 x[100] - 33 x[101] - 46 x[102] - 97 x[103]
   - 43 x[104] - 51 x[105] - 10 x[106] - 88 x[107] - 94 x[108] - 76 x[109]
   - 89 x[110] - 34 x[111] - 37 x[112] - 91 x[113] - 86 x[114] - 85 x[115]
   - 59 x[116] - 25 x[117] - 38 x[118] - 27 x[119] - 9 x[120] - 10 x[121]
   - 58 x[122] - 87 x[123] - 79 x[124] - 44 x[125] - 80 x[126] - 86 x[127]
   - 27 x[128] - 72 x[129] - 90 x[130] - 75 x[131] - 40 x[132] - 22 x[133]
   - 49 x[134] - 7 x[135] - 12 x[136] - 89 x[137] - 87 x[138] - x[139]
   - 38 x[140] - 88 x[141] - 77 x[142] - 19 x[143] - 36 x[144] - 10 x[145]
   - 25 x[146] - 95 x[147] - 60 x[148] - 42 x[149]
Subject To
 primal_upper: 49 x[0] + 22 x[1] + 44 x[2] + 17 x[3] + 58 x[4] + 91 x[5]
   + 83 x[6] + 41 x[7] + 27 x[8] + 16 x[9] + 65 x[10] + 17 x[11] + 46 x[12]
   + 22 x[13] + 70 x[14] + 74 x[15] + 43 x[16] + 26 x[17] + 51 x[18]
   + 56 x[19] + 31 x[20] + x[21] + 90 x[22] + 60 x[23] + 18 x[24]
   + 18 x[25] + 80 x[26] + 25 x[27] + 39 x[28] + 65 x[29] + 35 x[30]
   + 93 x[31] + 81 x[32] + 91 x[33] + 30 x[34] + 11 x[35] + 2 x[36]
   + 74 x[37] + 46 x[38] + 92 x[39] + 65 x[40] + 35 x[41] + 20 x[42]
   + 31 x[43] + 41 x[44] + 52 x[45] + 19 x[46] + 43 x[47] + 53 x[48]
   + 22 x[49] + 32 x[50] + 6 x[51] + 95 x[52] + 10 x[53] + 38 x[54]
   + 33 x[55] + 55 x[56] + 64 x[57] + 86 x[58] + 84 x[59] + 30 x[60]
   + 44 x[61] + 53 x[62] + 16 x[63] + 53 x[64] + 90 x[65] + 6 x[66]
   + 80 x[67] + 82 x[68] + 59 x[69] + 35 x[70] + 27 x[71] + 88 x[72]
   + 61 x[73] + 73 x[74] + 46 x[75] + 60 x[76] + 9 x[77] + 50 x[78]
   + 24 x[79] + 51 x[80] + 23 x[81] + 12 x[82] + 71 x[83] + 3 x[84]
   + 19 x[85] + 5 x[86] + 6 x[87] + 100 x[88] + 61 x[89] + 14 x[90]
   + 74 x[91] + 98 x[92] + 17 x[93] + 18 x[94] + 35 x[95] + 35 x[96]
   + 30 x[97] + 26 x[98] + 34 x[99] + 99 x[100] + 78 x[101] + 96 x[102]
   + 90 x[103] + 39 x[104] + 64 x[105] + 5 x[106] + 36 x[107] + 40 x[108]
   + 59 x[109] + 100 x[110] + 77 x[111] + 19 x[112] + 99 x[113] + 43 x[114]
   + 64 x[115] + 57 x[116] + 75 x[117] + 67 x[118] + 74 x[119] + 17 x[120]
   + 82 x[121] + 25 x[122] + 92 x[123] + 95 x[124] + 64 x[125] + 93 x[126]
   + 13 x[127] + 24 x[128] + 77 x[129] + 35 x[130] + 95 x[131] + 12 x[132]
   + 82 x[133] + 6 x[134] + 64 x[135] + 79 x[136] + 28 x[137] + 39 x[138]
   + 14 x[139] + 9 x[140] + 46 x[141] + 85 x[142] + 77 x[143] + 7 x[144]
   + 72 x[145] + 16 x[146] + 65 x[147] + 90 x[148] + 20 x[149] + 4.9 r[0]
   + 2.2 r[1] + 4.4 r[2] + 1.7 r[3] + 5.8 r[4] + 9.1 r[5] + 8.3 r[6]
   + 4.1 r[7] + 2.7 r[8] + 1.6 r[9] + 6.5 r[10] + 1.7 r[11] + 4.6 r[12]
   + 2.2 r[13] + 7 r[14] + 7.4 r[15] + 4.3 r[16] + 2.6 r[17] + 5.1 r[18]
   + 5.6 r[19] + 3.1 r[20] + 0.1 r[21] + 9 r[22] + 6 r[23] + 1.8 r[24]
   + 1.8 r[25] + 8 r[26] + 2.5 r[27] + 3.9 r[28] + 6.5 r[29] + 3.5 r[30]
   + 9.3 r[31] + 8.1 r[32] + 9.1 r[33] + 3 r[34] + 1.1 r[35] + 0.2 r[36]
   + 7.4 r[37] + 4.6 r[38] + 9.2 r[39] + 6.5 r[40] + 3.5 r[41] + 2 r[42]
   + 3.1 r[43] + 4.1 r[44] + 5.2 r[45] + 1.9 r[46] + 4.3 r[47] + 5.3 r[48]
   + 2.2 r[49] + 3.2 r[50] + 0.6 r[51] + 9.5 r[52] + r[53] + 3.8 r[54]
   + 3.3 r[55] + 5.5 r[56] + 6.4 r[57] + 8.6 r[58] + 8.4 r[59] + 3 r[60]
   + 4.4 r[61] + 5.3 r[62] + 1.6 r[63] + 5.3 r[64] + 9 r[65] + 0.6 r[66]
   + 8 r[67] + 8.2 r[68] + 5.9 r[69] + 3.5 r[70] + 2.7 r[71] + 8.8 r[72]
   + 6.1 r[73] + 7.3 r[74] + 4.6 r[75] + 6 r[76] + 0.9 r[77] + 5 r[78]
   + 2.4 r[79] + 5.1 r[80] + 2.3 r[81] + 1.2 r[82] + 7.1 r[83] + 0.3 r[84]
   + 1.9 r[85] + 0.5 r[86] + 0.6 r[87] + 10 r[88] + 6.1 r[89] + 1.4 r[90]
   + 7.4 r[91] + 9.8 r[92] + 1.7 r[93] + 1.8 r[94] + 3.5 r[95] + 3.5 r[96]
   + 3 r[97] + 2.6 r[98] + 3.4 r[99] + 9.9 r[100] + 7.8 r[101] + 9.6 r[102]
   + 9 r[103] + 3.9 r[104] + 6.4 r[105] + 0.5 r[106] + 3.6 r[107]
   + 4 r[108] + 5.9 r[109] + 10 r[110] + 7.7 r[111] + 1.9 r[112]
   + 9.9 r[113] + 4.3 r[114] + 6.4 r[115] + 5.7 r[116] + 7.5 r[117]
   + 6.7 r[118] + 7.4 r[119] + 1.7 r[120] + 8.2 r[121] + 2.5 r[122]
   + 9.2 r[123] + 9.5 r[124] + 6.4 r[125] + 9.3 r[126] + 1.3 r[127]
   + 2.4 r[128] + 7.7 r[129] + 3.5 r[130] + 9.5 r[131] + 1.2 r[132]
   + 8.2 r[133] + 0.6 r[134] + 6.4 r[135] + 7.9 r[136] + 2.8 r[137]
   + 3.9 r[138] + 1.4 r[139] + 0.9 r[140] + 4.6 r[141] + 8.5 r[142]
   + 7.7 r[143] + 0.7 r[144] + 7.2 r[145] + 1.6 r[146] + 6.5 r[147]
   + 9 r[148] + 2 r[149] <= 695
 primal_lower: 3.876279573024549 x[0] + 2.471674324954935 x[1]
   + 1.491550056003116 x[2] + 4.313636513586859 x[3]
   + 3.821340199248783 x[4] + 3.0890294749394 x[5]
   + 0.3997848024862075 x[6] + 4.131502154618574 x[7]
   + 3.37233535905836 x[8] + 4.195221065068933 x[9]
   + 0.2658422878696776 x[10] + 0.3921981599147696 x[11]
   + 1.733397817851208 x[12] + 2.669674954122688 x[13]
   + 1.621521000939538 x[14] + 0.9636588443073514 x[15]
   + 2.384893315804531 x[16] + 1.834108340957839 x[17]
   + 1.856614994110004 x[18] + 4.34334600268375 x[19]
   + 3.039794951856289 x[20] + 2.02377937393194 x[21]
   + 2.395580103643331 x[22] + 4.302341557378946 x[23]
   + 3.104440389040032 x[24] + 0.4966473216380329 x[25]
   + 4.046368145940157 x[26] + 2.038361621373681 x[27]
   + 0.739156883493253 x[28] + 0.1320914126525811 x[29]
   + 2.73891329057681 x[30] + 2.020937023152769 x[31]
   + 0.3708667895192908 x[32] + 2.373401493719844 x[33]
   + 1.188934869080917 x[34] + 4.205910740255983 x[35]
   + 4.093514353187331 x[36] + 1.147176603523914 x[37]
   + 0.1577967716610822 x[38] + 1.156487476052364 x[39]
   + 0.7376632526451627 x[40] + 1.619429333619204 x[41]
   + 4.232787021291498 x[42] + 2.574477774818321 x[43]
   + 1.769257469531916 x[44] + 1.761366816107383 x[45]
   + 0.8947979920853192 x[46] + 2.690860834136478 x[47]
   + 0.264191630082228 x[48] + 4.237563693094394 x[49]
   + 1.590571045401646 x[50] + 1.565951171788686 x[51]
   + 2.667852157420693 x[52] + 3.591824070458832 x[53]
   + 4.580166727881182 x[54] + 2.901874424446952 x[55]
   + 3.65046092940276 x[56] + 3.751242229415861 x[57]
   + 2.531232320728162 x[58] + 2.811083454823106 x[59]
   + 4.480715601716025 x[60] + 0.6185251076885865 x[61]
   + 4.445025498309245 x[62] + 4.24950966327496 x[63]
   + 0.9617937710705499 x[64] + 2.16639146556686 x[65]
   + 2.547363570142374 x[66] + 4.431166395530135 x[67]
   + 1.902106782838155 x[68] + 0.6461459185870881 x[69]
   + 2.594333212269492 x[70] + 1.202057796367697 x[71]
   + 2.518196488725422 x[72] + 2.584392914383259 x[73]
   + 3.588198749427992 x[74] + 2.701150968816829 x[75]
   + 4.495008875399614 x[76] + 4.352844111467646 x[77]
   + 1.903718165043776 x[78] + 0.00724389896598492 x[79]
   + 0.3455617622659151 x[80] + 0.1093489572456074 x[81]
   + 4.01804623827984 x[82] + 2.829254323899367 x[83]
   + 1.548179856317118 x[84] + 1.735205785121394 x[85]
   + 2.655769973821525 x[86] + 1.46349266807907 x[87]
   + 4.15210164619974 x[88] + 2.898183695644505 x[89]
   + 0.0635383213540717 x[90] + 0.0660172330662392 x[91]
   + 1.94613522014827 x[92] + 3.587659969179607 x[93]
   + 0.1446123874087747 x[94] + 2.534537214870729 x[95]
   + 0.2486094785835057 x[96] + 3.695675205306709 x[97]
   + 0.9379819965659081 x[98] + 0.7114803321620967 x[99]
   + 3.629532686381602 x[100] + 3.653031480965569 x[101]
   + 0.7233002370020759 x[102] + 3.197098115916101 x[103]
   + 0.5086546941263581 x[104] + 3.686501622571955 x[105]
   + 0.6085699711184184 x[106] + 0.5611645161136262 x[107]
   + 2.051781350883288 x[108] + 2.820192636631703 x[109]
   + 4.416884003934019 x[110] + 3.274794872154583 x[111]
   + 0.4579598600296578 x[112] + 0.3875688651261786 x[113]
   + 0.9325837658280551 x[114] + 1.321825133557637 x[115]
   + 1.579586939059454 x[116] + 0.9890102818713119 x[117]
   + 4.495081640764953 x[118] + 2.080333851802938 x[119]
   + 2.985300418361059 x[120] + 0.4149272511829151 x[121]
   + 2.256339360135275 x[122] + 2.754398682857815 x[123]
   + 3.464545703501835 x[124] + 2.194684531477989 x[125]
   + 4.249249736623394 x[126] + 2.643652515009022 x[127]
   + 4.147397305543138 x[128] + 0.5238367503071193 x[129]
   + 4.198348004745579 x[130] + 1.864760938319245 x[131]
   + 2.503239622094741 x[132] + 4.552909089302645 x[133]
   + 1.221750683168862 x[134] + 0.5624291259741752 x[135]
   + 4.218167131854226 x[136] + 3.099944465324373 x[137]
   + 2.329477656804396 x[138] + 3.06977867481526 x[139]
   + 4.489438917965122 x[140] + 1.587762040135666 x[141]
   + 0.4987742137807953 x[142] + 3.111305439428608 x[143]
   + 4.257965874537277 x[144] + 1.067877888196328 x[145]
   + 3.86621301075979 x[146] + 3.740598215643666 x[147]
   + 4.364421292095876 x[148] + 1.004590147609752 x[149] + 27 u[0] + 7 u[1]
   + 89 u[2] + 26 u[3] + 15 u[4] + 33 u[5] + 40 u[6] + 67 u[7] + 8 u[8]
   + 13 u[9] + 67 u[10] + 6 u[11] + 7 u[12] + 91 u[13] + 64 u[14]
   + 72 u[15] + 88 u[16] + 35 u[17] + 4 u[18] + 53 u[19] + 24 u[20]
   + 59 u[21] + 75 u[22] + 50 u[23] + 8 u[24] + 7 u[25] + 33 u[26]
   + 95 u[27] + 81 u[28] + 86 u[29] + 5 u[30] + 87 u[31] + 87 u[32]
   + 12 u[33] + 7 u[34] + 60 u[35] + 79 u[36] + 8 u[37] + 35 u[38]
   + 90 u[39] + 22 u[40] + 21 u[41] + 9 u[42] + 73 u[43] + 50 u[44]
   + 14 u[45] + 17 u[46] + 33 u[47] + 54 u[48] + 99 u[49] + 82 u[50]
   + 23 u[51] + 32 u[52] + 71 u[53] + 44 u[54] + 27 u[55] + 64 u[56]
   + 22 u[57] + 55 u[58] + 9 u[59] + 40 u[60] + 78 u[61] + 51 u[62]
   + 30 u[63] + 23 u[64] + 27 u[65] + 4 u[66] + 34 u[67] + 71 u[68]
   + 25 u[69] + 93 u[70] + 81 u[71] + 69 u[72] + 98 u[73] + 15 u[74]
   + 72 u[75] + 42 u[76] + 26 u[77] + 72 u[78] + 10 u[79] + 69 u[80]
   + 9 u[81] + 10 u[82] + 29 u[83] + 33 u[84] + 81 u[85] + 27 u[86]
   + 59 u[87] + 89 u[88] + 22 u[89] + 32 u[90] + 76 u[91] + 12 u[92]
   + 87 u[93] + 27 u[94] + 36 u[95] + 16 u[96] + 48 u[97] + 83 u[98]
   + 83 u[99] + 80 u[100] + 99 u[101] + 29 u[102] + 7 u[103] + 40 u[104]
   + 29 u[105] + 58 u[106] + 98 u[107] + 50 u[108] + 56 u[109] + 22 u[110]
   + 86 u[111] + 96 u[112] + 100 u[113] + 100 u[114] + 14 u[115]
   + 30 u[116] + 60 u[117] + 68 u[118] + 40 u[119] + 99 u[120] + 32 u[121]
   + 71 u[122] + 90 u[123] + 32 u[124] + 94 u[125] + 15 u[126] + 95 u[127]
   + 70 u[128] + 58 u[129] + 37 u[130] + 4 u[131] + 2 u[132] + 43 u[133]
   + 48 u[134] + 89 u[135] + 52 u[136] + 38 u[137] + 69 u[138] + 79 u[139]
   + 50 u[140] + 80 u[141] + 54 u[142] + 62 u[143] + 16 u[144] + 73 u[145]
   + 53 u[146] + 22 u[147] + 24 u[148] + u[149] <= 52344
 mccormick1[0]: - u[0] + r[0] <= 0
 mccormick1[1]: - u[1] + r[1] <= 0
 mccormick1[2]: - u[2] + r[2] <= 0
 mccormick1[3]: - u[3] + r[3] <= 0
 mccormick1[4]: - u[4] + r[4] <= 0
 mccormick1[5]: - u[5] + r[5] <= 0
 mccormick1[6]: - u[6] + r[6] <= 0
 mccormick1[7]: - u[7] + r[7] <= 0
 mccormick1[8]: - u[8] + r[8] <= 0
 mccormick1[9]: - u[9] + r[9] <= 0
 mccormick1[10]: - u[10] + r[10] <= 0
 mccormick1[11]: - u[11] + r[11] <= 0
 mccormick1[12]: - u[12] + r[12] <= 0
 mccormick1[13]: - u[13] + r[13] <= 0
 mccormick1[14]: - u[14] + r[14] <= 0
 mccormick1[15]: - u[15] + r[15] <= 0
 mccormick1[16]: - u[16] + r[16] <= 0
 mccormick1[17]: - u[17] + r[17] <= 0
 mccormick1[18]: - u[18] + r[18] <= 0
 mccormick1[19]: - u[19] + r[19] <= 0
 mccormick1[20]: - u[20] + r[20] <= 0
 mccormick1[21]: - u[21] + r[21] <= 0
 mccormick1[22]: - u[22] + r[22] <= 0
 mccormick1[23]: - u[23] + r[23] <= 0
 mccormick1[24]: - u[24] + r[24] <= 0
 mccormick1[25]: - u[25] + r[25] <= 0
 mccormick1[26]: - u[26] + r[26] <= 0
 mccormick1[27]: - u[27] + r[27] <= 0
 mccormick1[28]: - u[28] + r[28] <= 0
 mccormick1[29]: - u[29] + r[29] <= 0
 mccormick1[30]: - u[30] + r[30] <= 0
 mccormick1[31]: - u[31] + r[31] <= 0
 mccormick1[32]: - u[32] + r[32] <= 0
 mccormick1[33]: - u[33] + r[33] <= 0
 mccormick1[34]: - u[34] + r[34] <= 0
 mccormick1[35]: - u[35] + r[35] <= 0
 mccormick1[36]: - u[36] + r[36] <= 0
 mccormick1[37]: - u[37] + r[37] <= 0
 mccormick1[38]: - u[38] + r[38] <= 0
 mccormick1[39]: - u[39] + r[39] <= 0
 mccormick1[40]: - u[40] + r[40] <= 0
 mccormick1[41]: - u[41] + r[41] <= 0
 mccormick1[42]: - u[42] + r[42] <= 0
 mccormick1[43]: - u[43] + r[43] <= 0
 mccormick1[44]: - u[44] + r[44] <= 0
 mccormick1[45]: - u[45] + r[45] <= 0
 mccormick1[46]: - u[46] + r[46] <= 0
 mccormick1[47]: - u[47] + r[47] <= 0
 mccormick1[48]: - u[48] + r[48] <= 0
 mccormick1[49]: - u[49] + r[49] <= 0
 mccormick1[50]: - u[50] + r[50] <= 0
 mccormick1[51]: - u[51] + r[51] <= 0
 mccormick1[52]: - u[52] + r[52] <= 0
 mccormick1[53]: - u[53] + r[53] <= 0
 mccormick1[54]: - u[54] + r[54] <= 0
 mccormick1[55]: - u[55] + r[55] <= 0
 mccormick1[56]: - u[56] + r[56] <= 0
 mccormick1[57]: - u[57] + r[57] <= 0
 mccormick1[58]: - u[58] + r[58] <= 0
 mccormick1[59]: - u[59] + r[59] <= 0
 mccormick1[60]: - u[60] + r[60] <= 0
 mccormick1[61]: - u[61] + r[61] <= 0
 mccormick1[62]: - u[62] + r[62] <= 0
 mccormick1[63]: - u[63] + r[63] <= 0
 mccormick1[64]: - u[64] + r[64] <= 0
 mccormick1[65]: - u[65] + r[65] <= 0
 mccormick1[66]: - u[66] + r[66] <= 0
 mccormick1[67]: - u[67] + r[67] <= 0
 mccormick1[68]: - u[68] + r[68] <= 0
 mccormick1[69]: - u[69] + r[69] <= 0
 mccormick1[70]: - u[70] + r[70] <= 0
 mccormick1[71]: - u[71] + r[71] <= 0
 mccormick1[72]: - u[72] + r[72] <= 0
 mccormick1[73]: - u[73] + r[73] <= 0
 mccormick1[74]: - u[74] + r[74] <= 0
 mccormick1[75]: - u[75] + r[75] <= 0
 mccormick1[76]: - u[76] + r[76] <= 0
 mccormick1[77]: - u[77] + r[77] <= 0
 mccormick1[78]: - u[78] + r[78] <= 0
 mccormick1[79]: - u[79] + r[79] <= 0
 mccormick1[80]: - u[80] + r[80] <= 0
 mccormick1[81]: - u[81] + r[81] <= 0
 mccormick1[82]: - u[82] + r[82] <= 0
 mccormick1[83]: - u[83] + r[83] <= 0
 mccormick1[84]: - u[84] + r[84] <= 0
 mccormick1[85]: - u[85] + r[85] <= 0
 mccormick1[86]: - u[86] + r[86] <= 0
 mccormick1[87]: - u[87] + r[87] <= 0
 mccormick1[88]: - u[88] + r[88] <= 0
 mccormick1[89]: - u[89] + r[89] <= 0
 mccormick1[90]: - u[90] + r[90] <= 0
 mccormick1[91]: - u[91] + r[91] <= 0
 mccormick1[92]: - u[92] + r[92] <= 0
 mccormick1[93]: - u[93] + r[93] <= 0
 mccormick1[94]: - u[94] + r[94] <= 0
 mccormick1[95]: - u[95] + r[95] <= 0
 mccormick1[96]: - u[96] + r[96] <= 0
 mccormick1[97]: - u[97] + r[97] <= 0
 mccormick1[98]: - u[98] + r[98] <= 0
 mccormick1[99]: - u[99] + r[99] <= 0
 mccormick1[100]: - u[100] + r[100] <= 0
 mccormick1[101]: - u[101] + r[101] <= 0
 mccormick1[102]: - u[102] + r[102] <= 0
 mccormick1[103]: - u[103] + r[103] <= 0
 mccormick1[104]: - u[104] + r[104] <= 0
 mccormick1[105]: - u[105] + r[105] <= 0
 mccormick1[106]: - u[106] + r[106] <= 0
 mccormick1[107]: - u[107] + r[107] <= 0
 mccormick1[108]: - u[108] + r[108] <= 0
 mccormick1[109]: - u[109] + r[109] <= 0
 mccormick1[110]: - u[110] + r[110] <= 0
 mccormick1[111]: - u[111] + r[111] <= 0
 mccormick1[112]: - u[112] + r[112] <= 0
 mccormick1[113]: - u[113] + r[113] <= 0
 mccormick1[114]: - u[114] + r[114] <= 0
 mccormick1[115]: - u[115] + r[115] <= 0
 mccormick1[116]: - u[116] + r[116] <= 0
 mccormick1[117]: - u[117] + r[117] <= 0
 mccormick1[118]: - u[118] + r[118] <= 0
 mccormick1[119]: - u[119] + r[119] <= 0
 mccormick1[120]: - u[120] + r[120] <= 0
 mccormick1[121]: - u[121] + r[121] <= 0
 mccormick1[122]: - u[122] + r[122] <= 0
 mccormick1[123]: - u[123] + r[123] <= 0
 mccormick1[124]: - u[124] + r[124] <= 0
 mccormick1[125]: - u[125] + r[125] <= 0
 mccormick1[126]: - u[126] + r[126] <= 0
 mccormick1[127]: - u[127] + r[127] <= 0
 mccormick1[128]: - u[128] + r[128] <= 0
 mccormick1[129]: - u[129] + r[129] <= 0
 mccormick1[130]: - u[130] + r[130] <= 0
 mccormick1[131]: - u[131] + r[131] <= 0
 mccormick1[132]: - u[132] + r[132] <= 0
 mccormick1[133]: - u[133] + r[133] <= 0
 mccormick1[134]: - u[134] + r[134] <= 0
 mccormick1[135]: - u[135] + r[135] <= 0
 mccormick1[136]: - u[136] + r[136] <= 0
 mccormick1[137]: - u[137] + r[137] <= 0
 mccormick1[138]: - u[138] + r[138] <= 0
 mccormick1[139]: - u[139] + r[139] <= 0
 mccormick1[140]: - u[140] + r[140] <= 0
 mccormick1[141]: - u[141] + r[141] <= 0
 mccormick1[142]: - u[142] + r[142] <= 0
 mccormick1[143]: - u[143] + r[143] <= 0
 mccormick1[144]: - u[144] + r[144] <= 0
 mccormick1[145]: - u[145] + r[145] <= 0
 mccormick1[146]: - u[146] + r[146] <= 0
 mccormick1[147]: - u[147] + r[147] <= 0
 mccormick1[148]: - u[148] + r[148] <= 0
 mccormick1[149]: - u[149] + r[149] <= 0
 mccormick2[0]: - x[0] + r[0] <= 0
 mccormick2[1]: - x[1] + r[1] <= 0
 mccormick2[2]: - x[2] + r[2] <= 0
 mccormick2[3]: - x[3] + r[3] <= 0
 mccormick2[4]: - x[4] + r[4] <= 0
 mccormick2[5]: - x[5] + r[5] <= 0
 mccormick2[6]: - x[6] + r[6] <= 0
 mccormick2[7]: - x[7] + r[7] <= 0
 mccormick2[8]: - x[8] + r[8] <= 0
 mccormick2[9]: - x[9] + r[9] <= 0
 mccormick2[10]: - x[10] + r[10] <= 0
 mccormick2[11]: - x[11] + r[11] <= 0
 mccormick2[12]: - x[12] + r[12] <= 0
 mccormick2[13]: - x[13] + r[13] <= 0
 mccormick2[14]: - x[14] + r[14] <= 0
 mccormick2[15]: - x[15] + r[15] <= 0
 mccormick2[16]: - x[16] + r[16] <= 0
 mccormick2[17]: - x[17] + r[17] <= 0
 mccormick2[18]: - x[18] + r[18] <= 0
 mccormick2[19]: - x[19] + r[19] <= 0
 mccormick2[20]: - x[20] + r[20] <= 0
 mccormick2[21]: - x[21] + r[21] <= 0
 mccormick2[22]: - x[22] + r[22] <= 0
 mccormick2[23]: - x[23] + r[23] <= 0
 mccormick2[24]: - x[24] + r[24] <= 0
 mccormick2[25]: - x[25] + r[25] <= 0
 mccormick2[26]: - x[26] + r[26] <= 0
 mccormick2[27]: - x[27] + r[27] <= 0
 mccormick2[28]: - x[28] + r[28] <= 0
 mccormick2[29]: - x[29] + r[29] <= 0
 mccormick2[30]: - x[30] + r[30] <= 0
 mccormick2[31]: - x[31] + r[31] <= 0
 mccormick2[32]: - x[32] + r[32] <= 0
 mccormick2[33]: - x[33] + r[33] <= 0
 mccormick2[34]: - x[34] + r[34] <= 0
 mccormick2[35]: - x[35] + r[35] <= 0
 mccormick2[36]: - x[36] + r[36] <= 0
 mccormick2[37]: - x[37] + r[37] <= 0
 mccormick2[38]: - x[38] + r[38] <= 0
 mccormick2[39]: - x[39] + r[39] <= 0
 mccormick2[40]: - x[40] + r[40] <= 0
 mccormick2[41]: - x[41] + r[41] <= 0
 mccormick2[42]: - x[42] + r[42] <= 0
 mccormick2[43]: - x[43] + r[43] <= 0
 mccormick2[44]: - x[44] + r[44] <= 0
 mccormick2[45]: - x[45] + r[45] <= 0
 mccormick2[46]: - x[46] + r[46] <= 0
 mccormick2[47]: - x[47] + r[47] <= 0
 mccormick2[48]: - x[48] + r[48] <= 0
 mccormick2[49]: - x[49] + r[49] <= 0
 mccormick2[50]: - x[50] + r[50] <= 0
 mccormick2[51]: - x[51] + r[51] <= 0
 mccormick2[52]: - x[52] + r[52] <= 0
 mccormick2[53]: - x[53] + r[53] <= 0
 mccormick2[54]: - x[54] + r[54] <= 0
 mccormick2[55]: - x[55] + r[55] <= 0
 mccormick2[56]: - x[56] + r[56] <= 0
 mccormick2[57]: - x[57] + r[57] <= 0
 mccormick2[58]: - x[58] + r[58] <= 0
 mccormick2[59]: - x[59] + r[59] <= 0
 mccormick2[60]: - x[60] + r[60] <= 0
 mccormick2[61]: - x[61] + r[61] <= 0
 mccormick2[62]: - x[62] + r[62] <= 0
 mccormick2[63]: - x[63] + r[63] <= 0
 mccormick2[64]: - x[64] + r[64] <= 0
 mccormick2[65]: - x[65] + r[65] <= 0
 mccormick2[66]: - x[66] + r[66] <= 0
 mccormick2[67]: - x[67] + r[67] <= 0
 mccormick2[68]: - x[68] + r[68] <= 0
 mccormick2[69]: - x[69] + r[69] <= 0
 mccormick2[70]: - x[70] + r[70] <= 0
 mccormick2[71]: - x[71] + r[71] <= 0
 mccormick2[72]: - x[72] + r[72] <= 0
 mccormick2[73]: - x[73] + r[73] <= 0
 mccormick2[74]: - x[74] + r[74] <= 0
 mccormick2[75]: - x[75] + r[75] <= 0
 mccormick2[76]: - x[76] + r[76] <= 0
 mccormick2[77]: - x[77] + r[77] <= 0
 mccormick2[78]: - x[78] + r[78] <= 0
 mccormick2[79]: - x[79] + r[79] <= 0
 mccormick2[80]: - x[80] + r[80] <= 0
 mccormick2[81]: - x[81] + r[81] <= 0
 mccormick2[82]: - x[82] + r[82] <= 0
 mccormick2[83]: - x[83] + r[83] <= 0
 mccormick2[84]: - x[84] + r[84] <= 0
 mccormick2[85]: - x[85] + r[85] <= 0
 mccormick2[86]: - x[86] + r[86] <= 0
 mccormick2[87]: - x[87] + r[87] <= 0
 mccormick2[88]: - x[88] + r[88] <= 0
 mccormick2[89]: - x[89] + r[89] <= 0
 mccormick2[90]: - x[90] + r[90] <= 0
 mccormick2[91]: - x[91] + r[91] <= 0
 mccormick2[92]: - x[92] + r[92] <= 0
 mccormick2[93]: - x[93] + r[93] <= 0
 mccormick2[94]: - x[94] + r[94] <= 0
 mccormick2[95]: - x[95] + r[95] <= 0
 mccormick2[96]: - x[96] + r[96] <= 0
 mccormick2[97]: - x[97] + r[97] <= 0
 mccormick2[98]: - x[98] + r[98] <= 0
 mccormick2[99]: - x[99] + r[99] <= 0
 mccormick2[100]: - x[100] + r[100] <= 0
 mccormick2[101]: - x[101] + r[101] <= 0
 mccormick2[102]: - x[102] + r[102] <= 0
 mccormick2[103]: - x[103] + r[103] <= 0
 mccormick2[104]: - x[104] + r[104] <= 0
 mccormick2[105]: - x[105] + r[105] <= 0
 mccormick2[106]: - x[106] + r[106] <= 0
 mccormick2[107]: - x[107] + r[107] <= 0
 mccormick2[108]: - x[108] + r[108] <= 0
 mccormick2[109]: - x[109] + r[109] <= 0
 mccormick2[110]: - x[110] + r[110] <= 0
 mccormick2[111]: - x[111] + r[111] <= 0
 mccormick2[112]: - x[112] + r[112] <= 0
 mccormick2[113]: - x[113] + r[113] <= 0
 mccormick2[114]: - x[114] + r[114] <= 0
 mccormick2[115]: - x[115] + r[115] <= 0
 mccormick2[116]: - x[116] + r[116] <= 0
 mccormick2[117]: - x[117] + r[117] <= 0
 mccormick2[118]: - x[118] + r[118] <= 0
 mccormick2[119]: - x[119] + r[119] <= 0
 mccormick2[120]: - x[120] + r[120] <= 0
 mccormick2[121]: - x[121] + r[121] <= 0
 mccormick2[122]: - x[122] + r[122] <= 0
 mccormick2[123]: - x[123] + r[123] <= 0
 mccormick2[124]: - x[124] + r[124] <= 0
 mccormick2[125]: - x[125] + r[125] <= 0
 mccormick2[126]: - x[126] + r[126] <= 0
 mccormick2[127]: - x[127] + r[127] <= 0
 mccormick2[128]: - x[128] + r[128] <= 0
 mccormick2[129]: - x[129] + r[129] <= 0
 mccormick2[130]: - x[130] + r[130] <= 0
 mccormick2[131]: - x[131] + r[131] <= 0
 mccormick2[132]: - x[132] + r[132] <= 0
 mccormick2[133]: - x[133] + r[133] <= 0
 mccormick2[134]: - x[134] + r[134] <= 0
 mccormick2[135]: - x[135] + r[135] <= 0
 mccormick2[136]: - x[136] + r[136] <= 0
 mccormick2[137]: - x[137] + r[137] <= 0
 mccormick2[138]: - x[138] + r[138] <= 0
 mccormick2[139]: - x[139] + r[139] <= 0
 mccormick2[140]: - x[140] + r[140] <= 0
 mccormick2[141]: - x[141] + r[141] <= 0
 mccormick2[142]: - x[142] + r[142] <= 0
 mccormick2[143]: - x[143] + r[143] <= 0
 mccormick2[144]: - x[144] + r[144] <= 0
 mccormick2[145]: - x[145] + r[145] <= 0
 mccormick2[146]: - x[146] + r[146] <= 0
 mccormick2[147]: - x[147] + r[147] <= 0
 mccormick2[148]: - x[148] + r[148] <= 0
 mccormick2[149]: - x[149] + r[149] <= 0
 mccormick3[0]: x[0] + u[0] - r[0] <= 1
 mccormick3[1]: x[1] + u[1] - r[1] <= 1
 mccormick3[2]: x[2] + u[2] - r[2] <= 1
 mccormick3[3]: x[3] + u[3] - r[3] <= 1
 mccormick3[4]: x[4] + u[4] - r[4] <= 1
 mccormick3[5]: x[5] + u[5] - r[5] <= 1
 mccormick3[6]: x[6] + u[6] - r[6] <= 1
 mccormick3[7]: x[7] + u[7] - r[7] <= 1
 mccormick3[8]: x[8] + u[8] - r[8] <= 1
 mccormick3[9]: x[9] + u[9] - r[9] <= 1
 mccormick3[10]: x[10] + u[10] - r[10] <= 1
 mccormick3[11]: x[11] + u[11] - r[11] <= 1
 mccormick3[12]: x[12] + u[12] - r[12] <= 1
 mccormick3[13]: x[13] + u[13] - r[13] <= 1
 mccormick3[14]: x[14] + u[14] - r[14] <= 1
 mccormick3[15]: x[15] + u[15] - r[15] <= 1
 mccormick3[16]: x[16] + u[16] - r[16] <= 1
 mccormick3[17]: x[17] + u[17] - r[17] <= 1
 mccormick3[18]: x[18] + u[18] - r[18] <= 1
 mccormick3[19]: x[19] + u[19] - r[19] <= 1
 mccormick3[20]: x[20] + u[20] - r[20] <= 1
 mccormick3[21]: x[21] + u[21] - r[21] <= 1
 mccormick3[22]: x[22] + u[22] - r[22] <= 1
 mccormick3[23]: x[23] + u[23] - r[23] <= 1
 mccormick3[24]: x[24] + u[24] - r[24] <= 1
 mccormick3[25]: x[25] + u[25] - r[25] <= 1
 mccormick3[26]: x[26] + u[26] - r[26] <= 1
 mccormick3[27]: x[27] + u[27] - r[27] <= 1
 mccormick3[28]: x[28] + u[28] - r[28] <= 1
 mccormick3[29]: x[29] + u[29] - r[29] <= 1
 mccormick3[30]: x[30] + u[30] - r[30] <= 1
 mccormick3[31]: x[31] + u[31] - r[31] <= 1
 mccormick3[32]: x[32] + u[32] - r[32] <= 1
 mccormick3[33]: x[33] + u[33] - r[33] <= 1
 mccormick3[34]: x[34] + u[34] - r[34] <= 1
 mccormick3[35]: x[35] + u[35] - r[35] <= 1
 mccormick3[36]: x[36] + u[36] - r[36] <= 1
 mccormick3[37]: x[37] + u[37] - r[37] <= 1
 mccormick3[38]: x[38] + u[38] - r[38] <= 1
 mccormick3[39]: x[39] + u[39] - r[39] <= 1
 mccormick3[40]: x[40] + u[40] - r[40] <= 1
 mccormick3[41]: x[41] + u[41] - r[41] <= 1
 mccormick3[42]: x[42] + u[42] - r[42] <= 1
 mccormick3[43]: x[43] + u[43] - r[43] <= 1
 mccormick3[44]: x[44] + u[44] - r[44] <= 1
 mccormick3[45]: x[45] + u[45] - r[45] <= 1
 mccormick3[46]: x[46] + u[46] - r[46] <= 1
 mccormick3[47]: x[47] + u[47] - r[47] <= 1
 mccormick3[48]: x[48] + u[48] - r[48] <= 1
 mccormick3[49]: x[49] + u[49] - r[49] <= 1
 mccormick3[50]: x[50] + u[50] - r[50] <= 1
 mccormick3[51]: x[51] + u[51] - r[51] <= 1
 mccormick3[52]: x[52] + u[52] - r[52] <= 1
 mccormick3[53]: x[53] + u[53] - r[53] <= 1
 mccormick3[54]: x[54] + u[54] - r[54] <= 1
 mccormick3[55]: x[55] + u[55] - r[55] <= 1
 mccormick3[56]: x[56] + u[56] - r[56] <= 1
 mccormick3[57]: x[57] + u[57] - r[57] <= 1
 mccormick3[58]: x[58] + u[58] - r[58] <= 1
 mccormick3[59]: x[59] + u[59] - r[59] <= 1
 mccormick3[60]: x[60] + u[60] - r[60] <= 1
 mccormick3[61]: x[61] + u[61] - r[61] <= 1
 mccormick3[62]: x[62] + u[62] - r[62] <= 1
 mccormick3[63]: x[63] + u[63] - r[63] <= 1
 mccormick3[64]: x[64] + u[64] - r[64] <= 1
 mccormick3[65]: x[65] + u[65] - r[65] <= 1
 mccormick3[66]: x[66] + u[66] - r[66] <= 1
 mccormick3[67]: x[67] + u[67] - r[67] <= 1
 mccormick3[68]: x[68] + u[68] - r[68] <= 1
 mccormick3[69]: x[69] + u[69] - r[69] <= 1
 mccormick3[70]: x[70] + u[70] - r[70] <= 1
 mccormick3[71]: x[71] + u[71] - r[71] <= 1
 mccormick3[72]: x[72] + u[72] - r[72] <= 1
 mccormick3[73]: x[73] + u[73] - r[73] <= 1
 mccormick3[74]: x[74] + u[74] - r[74] <= 1
 mccormick3[75]: x[75] + u[75] - r[75] <= 1
 mccormick3[76]: x[76] + u[76] - r[76] <= 1
 mccormick3[77]: x[77] + u[77] - r[77] <= 1
 mccormick3[78]: x[78] + u[78] - r[78] <= 1
 mccormick3[79]: x[79] + u[79] - r[79] <= 1
 mccormick3[80]: x[80] + u[80] - r[80] <= 1
 mccormick3[81]: x[81] + u[81] - r[81] <= 1
 mccormick3[82]: x[82] + u[82] - r[82] <= 1
 mccormick3[83]: x[83] + u[83] - r[83] <= 1
 mccormick3[84]: x[84] + u[84] - r[84] <= 1
 mccormick3[85]: x[85] + u[85] - r[85] <= 1
 mccormick3[86]: x[86] + u[86] - r[86] <= 1
 mccormick3[87]: x[87] + u[87] - r[87] <= 1
 mccormick3[88]: x[88] + u[88] - r[88] <= 1
 mccormick3[89]: x[89] + u[89] - r[89] <= 1
 mccormick3[90]: x[90] + u[90] - r[90] <= 1
 mccormick3[91]: x[91] + u[91] - r[91] <= 1
 mccormick3[92]: x[92] + u[92] - r[92] <= 1
 mccormick3[93]: x[93] + u[93] - r[93] <= 1
 mccormick3[94]: x[94] + u[94] - r[94] <= 1
 mccormick3[95]: x[95] + u[95] - r[95] <= 1
 mccormick3[96]: x[96] + u[96] - r[96] <= 1
 mccormick3[97]: x[97] + u[97] - r[97] <= 1
 mccormick3[98]: x[98] + u[98] - r[98] <= 1
 mccormick3[99]: x[99] + u[99] - r[99] <= 1
 mccormick3[100]: x[100] + u[100] - r[100] <= 1
 mccormick3[101]: x[101] + u[101] - r[101] <= 1
 mccormick3[102]: x[102] + u[102] - r[102] <= 1
 mccormick3[103]: x[103] + u[103] - r[103] <= 1
 mccormick3[104]: x[104] + u[104] - r[104] <= 1
 mccormick3[105]: x[105] + u[105] - r[105] <= 1
 mccormick3[106]: x[106] + u[106] - r[106] <= 1
 mccormick3[107]: x[107] + u[107] - r[107] <= 1
 mccormick3[108]: x[108] + u[108] - r[108] <= 1
 mccormick3[109]: x[109] + u[109] - r[109] <= 1
 mccormick3[110]: x[110] + u[110] - r[110] <= 1
 mccormick3[111]: x[111] + u[111] - r[111] <= 1
 mccormick3[112]: x[112] + u[112] - r[112] <= 1
 mccormick3[113]: x[113] + u[113] - r[113] <= 1
 mccormick3[114]: x[114] + u[114] - r[114] <= 1
 mccormick3[115]: x[115] + u[115] - r[115] <= 1
 mccormick3[116]: x[116] + u[116] - r[116] <= 1
 mccormick3[117]: x[117] + u[117] - r[117] <= 1
 mccormick3[118]: x[118] + u[118] - r[118] <= 1
 mccormick3[119]: x[119] + u[119] - r[119] <= 1
 mccormick3[120]: x[120] + u[120] - r[120] <= 1
 mccormick3[121]: x[121] + u[121] - r[121] <= 1
 mccormick3[122]: x[122] + u[122] - r[122] <= 1
 mccormick3[123]: x[123] + u[123] - r[123] <= 1
 mccormick3[124]: x[124] + u[124] - r[124] <= 1
 mccormick3[125]: x[125] + u[125] - r[125] <= 1
 mccormick3[126]: x[126] + u[126] - r[126] <= 1
 mccormick3[127]: x[127] + u[127] - r[127] <= 1
 mccormick3[128]: x[128] + u[128] - r[128] <= 1
 mccormick3[129]: x[129] + u[129] - r[129] <= 1
 mccormick3[130]: x[130] + u[130] - r[130] <= 1
 mccormick3[131]: x[131] + u[131] - r[131] <= 1
 mccormick3[132]: x[132] + u[132] - r[132] <= 1
 mccormick3[133]: x[133] + u[133] - r[133] <= 1
 mccormick3[134]: x[134] + u[134] - r[134] <= 1
 mccormick3[135]: x[135] + u[135] - r[135] <= 1
 mccormick3[136]: x[136] + u[136] - r[136] <= 1
 mccormick3[137]: x[137] + u[137] - r[137] <= 1
 mccormick3[138]: x[138] + u[138] - r[138] <= 1
 mccormick3[139]: x[139] + u[139] - r[139] <= 1
 mccormick3[140]: x[140] + u[140] - r[140] <= 1
 mccormick3[141]: x[141] + u[141] - r[141] <= 1
 mccormick3[142]: x[142] + u[142] - r[142] <= 1
 mccormick3[143]: x[143] + u[143] - r[143] <= 1
 mccormick3[144]: x[144] + u[144] - r[144] <= 1
 mccormick3[145]: x[145] + u[145] - r[145] <= 1
 mccormick3[146]: x[146] + u[146] - r[146] <= 1
 mccormick3[147]: x[147] + u[147] - r[147] <= 1
 mccormick3[148]: x[148] + u[148] - r[148] <= 1
 mccormick3[149]: x[149] + u[149] - r[149] <= 1
Bounds
Binaries
 x[0] x[1] x[2] x[3] x[4] x[5] x[6] x[7] x[8] x[9] x[10] x[11] x[12] x[13]
 x[14] x[15] x[16] x[17] x[18] x[19] x[20] x[21] x[22] x[23] x[24] x[25]
 x[26] x[27] x[28] x[29] x[30] x[31] x[32] x[33] x[34] x[35] x[36] x[37]
 x[38] x[39] x[40] x[41] x[42] x[43] x[44] x[45] x[46] x[47] x[48] x[49]
 x[50] x[51] x[52] x[53] x[54] x[55] x[56] x[57] x[58] x[59] x[60] x[61]
 x[62] x[63] x[64] x[65] x[66] x[67] x[68] x[69] x[70] x[71] x[72] x[73]
 x[74] x[75] x[76] x[77] x[78] x[79] x[80] x[81] x[82] x[83] x[84] x[85]
 x[86] x[87] x[88] x[89] x[90] x[91] x[92] x[93] x[94] x[95] x[96] x[97]
 x[98] x[99] x[100] x[101] x[102] x[103] x[104] x[105] x[106] x[107] x[108]
 x[109] x[110] x[111] x[112] x[113] x[114] x[115] x[116] x[117] x[118]
 x[119] x[120] x[121] x[122] x[123] x[124] x[125] x[126] x[127] x[128]
 x[129] x[130] x[131] x[132] x[133] x[134] x[135] x[136] x[137] x[138]
 x[139] x[140] x[141] x[142] x[143] x[144] x[145] x[146] x[147] x[148]
 x[149] u[0] u[1] u[2] u[3] u[4] u[5] u[6] u[7] u[8] u[9] u[10] u[11] u[12]
 u[13] u[14] u[15] u[16] u[17] u[18] u[19] u[20] u[21] u[22] u[23] u[24]
 u[25] u[26] u[27] u[28] u[29] u[30] u[31] u[32] u[33] u[34] u[35] u[36]
 u[37] u[38] u[39] u[40] u[41] u[42] u[43] u[44] u[45] u[46] u[47] u[48]
 u[49] u[50] u[51] u[52] u[53] u[54] u[55] u[56] u[57] u[58] u[59] u[60]
 u[61] u[62] u[63] u[64] u[65] u[66] u[67] u[68] u[69] u[70] u[71] u[72]
 u[73] u[74] u[75] u[76] u[77] u[78] u[79] u[80] u[81] u[82] u[83] u[84]
 u[85] u[86] u[87] u[88] u[89] u[90] u[91] u[92] u[93] u[94] u[95] u[96]
 u[97] u[98] u[99] u[100] u[101] u[102] u[103] u[104] u[105] u[106] u[107]
 u[108] u[109] u[110] u[111] u[112] u[113] u[114] u[115] u[116] u[117]
 u[118] u[119] u[120] u[121] u[122] u[123] u[124] u[125] u[126] u[127]
 u[128] u[129] u[130] u[131] u[132] u[133] u[134] u[135] u[136] u[137]
 u[138] u[139] u[140] u[141] u[142] u[143] u[144] u[145] u[146] u[147]
 u[148] u[149] r[0] r[1] r[2] r[3] r[4] r[5] r[6] r[7] r[8] r[9] r[10]
 r[11] r[12] r[13] r[14] r[15] r[16] r[17] r[18] r[19] r[20] r[21] r[22]
 r[23] r[24] r[25] r[26] r[27] r[28] r[29] r[30] r[31] r[32] r[33] r[34]
 r[35] r[36] r[37] r[38] r[39] r[40] r[41] r[42] r[43] r[44] r[45] r[46]
 r[47] r[48] r[49] r[50] r[51] r[52] r[53] r[54] r[55] r[56] r[57] r[58]
 r[59] r[60] r[61] r[62] r[63] r[64] r[65] r[66] r[67] r[68] r[69] r[70]
 r[71] r[72] r[73] r[74] r[75] r[76] r[77] r[78] r[79] r[80] r[81] r[82]
 r[83] r[84] r[85] r[86] r[87] r[88] r[89] r[90] r[91] r[92] r[93] r[94]
 r[95] r[96] r[97] r[98] r[99] r[100] r[101] r[102] r[103] r[104] r[105]
 r[106] r[107] r[108] r[109] r[110] r[111] r[112] r[113] r[114] r[115]
 r[116] r[117] r[118] r[119] r[120] r[121] r[122] r[123] r[124] r[125]
 r[126] r[127] r[128] r[129] r[130] r[131] r[132] r[133] r[134] r[135]
 r[136] r[137] r[138] r[139] r[140] r[141] r[142] r[143] r[144] r[145]
 r[146] r[147] r[148] r[149]
End
