instances/knapsack/discrete_knapsack_uncertainty/knapsack_150_11.kp
37329
150
695

49 4.9 10
22 2.2 58
44 4.4 28
17 1.7 56
58 5.8 33
91 9.1 73
83 8.3 49
41 4.1 99
27 2.7 86
16 1.6 66
65 6.5 87
17 1.7 63
46 4.6 91
22 2.2 94
70 7.0 39
74 7.4 52
43 4.3 42
26 2.6 2
51 5.1 70
56 5.6 73
31 3.1 57
1 0.1 43
90 9.0 16
60 6.0 20
18 1.8 9
18 1.8 38
80 8.0 48
25 2.5 59
39 3.9 54
65 6.5 100
35 3.5 21
93 9.3 36
81 8.1 100
91 9.1 75
30 3.0 23
11 1.1 21
2 0.2 17
74 7.4 87
46 4.6 30
92 9.2 47
65 6.5 68
35 3.5 41
20 2.0 81
31 3.1 19
41 4.1 18
52 5.2 51
19 1.9 52
43 4.3 60
53 5.3 88
22 2.2 1
32 3.2 59
6 0.6 66
95 9.5 95
10 1.0 93
38 3.8 8
33 3.3 30
55 5.5 98
64 6.4 92
86 8.6 68
84 8.4 55
30 3.0 32
44 4.4 14
53 5.3 45
16 1.6 25
53 5.3 6
90 9.0 29
6 0.6 93
80 8.0 53
82 8.2 20
59 5.9 41
35 3.5 97
27 2.7 11
88 8.8 25
61 6.1 61
73 7.3 94
46 4.6 66
60 6.0 10
9 0.9 97
50 5.0 4
24 2.4 55
51 5.1 39
23 2.3 98
12 1.2 25
71 7.1 54
3 0.3 5
19 1.9 56
5 0.5 94
6 0.6 75
100 10.0 84
61 6.1 22
14 1.4 22
74 7.4 77
98 9.8 53
17 1.7 100
18 1.8 88
35 3.5 22
35 3.5 61
30 3.0 20
26 2.6 92
34 3.4 24
99 9.9 16
78 7.8 33
96 9.6 46
90 9.0 97
39 3.9 43
64 6.4 51
5 0.5 10
36 3.6 88
40 4.0 94
59 5.9 76
100 10.0 89
77 7.7 34
19 1.9 37
99 9.9 91
43 4.3 86
64 6.4 85
57 5.7 59
75 7.5 25
67 6.7 38
74 7.4 27
17 1.7 9
82 8.2 10
25 2.5 58
92 9.2 87
95 9.5 79
64 6.4 44
93 9.3 80
13 1.3 86
24 2.4 27
77 7.7 72
35 3.5 90
95 9.5 75
12 1.2 40
82 8.2 22
6 0.6 49
64 6.4 7
79 7.9 12
28 2.8 89
39 3.9 87
14 1.4 1
9 0.9 38
46 4.6 88
85 8.5 77
77 7.7 19
7 0.7 36
72 7.2 10
16 1.6 25
65 6.5 95
90 9.0 60
20 2.0 42

52344
688

[3.8762795730245494 2.471674324954935 1.491550056003116 4.313636513586859 3.8213401992487825 3.0890294749394 0.3997848024862075 4.131502154618574 3.37233535905836 4.195221065068933 0.26584228786967756 0.3921981599147696 1.7333978178512077 2.6696749541226876 1.6215210009395382 0.9636588443073514 2.384893315804531 1.8341083409578391 1.8566149941100039 4.34334600268375 3.0397949518562895 2.02377937393194 2.395580103643331 4.302341557378946 3.1044403890400325 0.49664732163803293 4.046368145940157 2.0383616213736815 0.739156883493253 0.13209141265258112 2.7389132905768103 2.020937023152769 0.3708667895192908 2.373401493719844 1.1889348690809174 4.205910740255983 4.093514353187331 1.1471766035239142 0.15779677166108216 1.1564874760523638 0.7376632526451627 1.6194293336192045 4.232787021291498 2.5744777748183205 1.7692574695319163 1.761366816107383 0.8947979920853192 2.6908608341364784 0.26419163008222796 4.237563693094394 1.5905710454016462 1.5659511717886863 2.667852157420693 3.591824070458832 4.580166727881182 2.901874424446952 3.6504609294027603 3.751242229415861 2.5312323207281624 2.8110834548231063 4.480715601716025 0.6185251076885865 4.445025498309245 4.24950966327496 0.9617937710705499 2.1663914655668597 2.5473635701423736 4.431166395530135 1.9021067828381555 0.6461459185870881 2.594333212269492 1.202057796367697 2.5181964887254216 2.5843929143832587 3.5881987494279923 2.7011509688168287 4.495008875399614 4.352844111467646 1.903718165043776 0.007243898965984919 0.3455617622659151 0.10934895724560736 4.01804623827984 2.8292543238993666 1.5481798563171176 1.735205785121394 2.655769973821525 1.4634926680790699 4.15210164619974 2.8981836956445046 0.06353832135407166 0.06601723306623919 1.9461352201482698 3.5876599691796067 0.14461238740877475 2.534537214870729 0.24860947858350574 3.695675205306709 0.9379819965659081 0.7114803321620967 3.6295326863816024 3.6530314809655686 0.7233002370020759 3.197098115916101 0.5086546941263581 3.6865016225719547 0.6085699711184184 0.5611645161136262 2.051781350883288 2.820192636631703 4.416884003934019 3.274794872154583 0.4579598600296578 0.3875688651261786 0.9325837658280551 1.3218251335576374 1.579586939059454 0.9890102818713119 4.495081640764953 2.0803338518029375 2.985300418361059 0.41492725118291507 2.2563393601352755 2.754398682857815 3.4645457035018348 2.1946845314779893 4.249249736623394 2.6436525150090224 4.147397305543138 0.5238367503071193 4.198348004745579 1.864760938319245 2.503239622094741 4.552909089302645 1.2217506831688623 0.5624291259741752 4.2181671318542255 3.0999444653243726 2.3294776568043964 3.0697786748152596 4.489438917965122 1.5877620401356658 0.4987742137807953 3.1113054394286084 4.257965874537277 1.067877888196328 3.86621301075979 3.740598215643666 4.364421292095876 1.004590147609752]

[27 7 89 26 15 33 40 67 8 13 67 6 7 91 64 72 88 35 4 53 24 59 75 50 8 7 33 95 81 86 5 87 87 12 7 60 79 8 35 90 22 21 9 73 50 14 17 33 54 99 82 23 32 71 44 27 64 22 55 9 40 78 51 30 23 27 4 34 71 25 93 81 69 98 15 72 42 26 72 10 69 9 10 29 33 81 27 59 89 22 32 76 12 87 27 36 16 48 83 83 80 99 29 7 40 29 58 98 50 56 22 86 96 100 100 14 30 60 68 40 99 32 71 90 32 94 15 95 70 58 37 4 2 43 48 89 52 38 69 79 50 80 54 62 16 73 53 22 24 1]
